Assets/LKHProbs~/skull.32.tsp
NAME : GeneratedProblem
COMMENT : SVGCrosshatch
TYPE : TSP
DIMENSION : 12
EDGE_WEIGHT_TYPE : EUC_2D
NODE_COORD_SECTION
1 5600 2400
2 5600 2500
3 5600 2600
4 5600 2700
5 5600 2800
6 5600 2900
7 5700 2400
8 5700 2500
9 5700 2600
10 5700 2700
11 5700 2800
12 5700 2900
EOF
