Assets/LKHProbs~/skull.32.out.txt
NAME : GeneratedProblem.1200.tour
COMMENT : Length = 1200
COMMENT : Found by LKH [Keld Helsgaun] Sun Nov 25 13:17:44 2018
TYPE : TOUR
DIMENSION : 12
TOUR_SECTION
1
2
3
4
5
6
12
11
10
9
8
7
-1
EOF
